c CNF
c from Selman's wff generator
p cnf 200  1600
1.0 -169 24 0
1.0 -31 -58 0
1.0 -130 64 0
1.0 -140 49 0
1.0 108 104 0
1.0 -92 -173 0
1.0 130 -15 0
1.0 -68 79 0
1.0 -102 -123 0
1.0 181 -39 0
1.0 -103 199 0
1.0 47 -159 0
1.0 -63 -128 0
1.0 -100 77 0
1.0 -92 -189 0
1.0 -67 -83 0
1.0 6 -118 0
1.0 157 163 0
1.0 -161 85 0
1.0 -44 -149 0
1.0 77 -133 0
1.0 10 -168 0
1.0 156 137 0
1.0 -20 56 0
1.0 174 -89 0
1.0 -52 109 0
1.0 194 91 0
1.0 -39 -183 0
1.0 116 -3 0
1.0 170 -98 0
1.0 -35 87 0
1.0 142 -138 0
1.0 27 92 0
1.0 200 -34 0
1.0 124 -112 0
1.0 95 172 0
1.0 -174 -170 0
1.0 68 -160 0
1.0 -46 -19 0
1.0 -156 -35 0
1.0 127 -148 0
1.0 -181 -152 0
1.0 63 -149 0
1.0 -121 146 0
1.0 115 -100 0
1.0 60 -109 0
1.0 127 39 0
1.0 74 -195 0
1.0 -143 -126 0
1.0 77 -45 0
1.0 194 -95 0
1.0 40 -62 0
1.0 -162 47 0
1.0 -155 20 0
1.0 -58 -19 0
1.0 -13 -28 0
1.0 153 57 0
1.0 -102 107 0
1.0 2 66 0
1.0 -128 17 0
1.0 -63 132 0
1.0 152 36 0
1.0 -54 61 0
1.0 88 72 0
1.0 128 100 0
1.0 -7 40 0
1.0 105 133 0
1.0 -149 44 0
1.0 176 -30 0
1.0 -66 -126 0
1.0 -187 76 0
1.0 -147 7 0
1.0 -107 -186 0
1.0 -25 -29 0
1.0 -161 -168 0
1.0 -11 -82 0
1.0 -111 -150 0
1.0 76 49 0
1.0 -125 80 0
1.0 -86 -51 0
1.0 -36 50 0
1.0 -79 23 0
1.0 -191 151 0
1.0 -32 -70 0
1.0 -19 101 0
1.0 -150 14 0
1.0 -93 -92 0
1.0 -142 -91 0
1.0 141 73 0
1.0 96 29 0
1.0 180 7 0
1.0 -76 75 0
1.0 -176 -73 0
1.0 -87 -144 0
1.0 -35 -143 0
1.0 -33 -126 0
1.0 -199 193 0
1.0 -21 49 0
1.0 55 -68 0
1.0 143 -166 0
1.0 39 -14 0
1.0 -157 -40 0
1.0 -182 59 0
1.0 -185 -122 0
1.0 115 -179 0
1.0 -28 58 0
1.0 126 147 0
1.0 -112 -38 0
1.0 51 28 0
1.0 -68 177 0
1.0 36 167 0
1.0 89 52 0
1.0 -31 81 0
1.0 -139 73 0
1.0 -20 -153 0
1.0 191 119 0
1.0 146 156 0
1.0 133 -47 0
1.0 -13 -127 0
1.0 -178 192 0
1.0 73 41 0
1.0 114 -6 0
1.0 158 -9 0
1.0 -127 146 0
1.0 101 36 0
1.0 83 149 0
1.0 -75 190 0
1.0 182 98 0
1.0 139 125 0
1.0 -130 142 0
1.0 151 48 0
1.0 -193 24 0
1.0 -60 -36 0
1.0 184 128 0
1.0 -118 32 0
1.0 -130 170 0
1.0 -95 19 0
1.0 -160 -104 0
1.0 -152 -148 0
1.0 172 136 0
1.0 -171 -165 0
1.0 93 10 0
1.0 -41 -123 0
1.0 93 -62 0
1.0 80 157 0
1.0 -60 125 0
1.0 -73 136 0
1.0 72 193 0
1.0 -157 49 0
1.0 58 9 0
1.0 132 167 0
1.0 28 -105 0
1.0 -61 -23 0
1.0 -147 96 0
1.0 31 -85 0
1.0 -77 139 0
1.0 187 142 0
1.0 -151 140 0
1.0 -106 -9 0
1.0 113 -115 0
1.0 138 187 0
1.0 -82 -23 0
1.0 107 -166 0
1.0 104 160 0
1.0 -101 98 0
1.0 -37 -76 0
1.0 85 -37 0
1.0 -152 116 0
1.0 -102 -63 0
1.0 85 -76 0
1.0 -42 -110 0
1.0 70 -191 0
1.0 89 -170 0
1.0 45 -153 0
1.0 -189 -144 0
1.0 59 -96 0
1.0 -158 2 0
1.0 77 -39 0
1.0 149 8 0
1.0 -199 98 0
1.0 68 -8 0
1.0 160 -81 0
1.0 24 167 0
1.0 62 118 0
1.0 119 -187 0
1.0 -26 -95 0
1.0 -102 -176 0
1.0 -73 -180 0
1.0 188 -1 0
1.0 81 -94 0
1.0 -60 -185 0
1.0 -102 29 0
1.0 15 2 0
1.0 96 -128 0
1.0 103 -7 0
1.0 -186 -86 0
1.0 -86 -168 0
1.0 61 -16 0
1.0 200 -56 0
1.0 -84 183 0
1.0 -184 137 0
1.0 64 -153 0
1.0 -160 -175 0
1.0 -61 -58 0
1.0 -26 39 0
1.0 55 182 0
1.0 -37 -49 0
1.0 31 77 0
1.0 13 157 0
1.0 110 170 0
1.0 145 186 0
1.0 -44 133 0
1.0 -172 63 0
1.0 44 162 0
1.0 10 36 0
1.0 113 -19 0
1.0 176 149 0
1.0 -119 45 0
1.0 31 169 0
1.0 -101 17 0
1.0 80 -97 0
1.0 58 179 0
1.0 -15 -4 0
1.0 23 -162 0
1.0 111 53 0
1.0 98 -36 0
1.0 4 -158 0
1.0 -175 144 0
1.0 -40 76 0
1.0 -55 180 0
1.0 -184 72 0
1.0 34 -46 0
1.0 -99 -86 0
1.0 -122 -63 0
1.0 20 -126 0
1.0 70 -8 0
1.0 84 -24 0
1.0 4 -170 0
1.0 -41 1 0
1.0 47 -196 0
1.0 -81 190 0
1.0 -52 66 0
1.0 191 157 0
1.0 -165 114 0
1.0 -137 -175 0
1.0 -145 -191 0
1.0 192 119 0
1.0 -114 -76 0
1.0 -66 -124 0
1.0 -189 -124 0
1.0 81 55 0
1.0 168 -8 0
1.0 183 -77 0
1.0 -68 171 0
1.0 90 170 0
1.0 -46 -80 0
1.0 4 -194 0
1.0 -118 -16 0
1.0 70 11 0
1.0 -19 135 0
1.0 -12 186 0
1.0 -156 39 0
1.0 8 36 0
1.0 -115 -46 0
1.0 -40 -192 0
1.0 -8 82 0
1.0 -92 -198 0
1.0 -132 -57 0
1.0 42 -39 0
1.0 77 161 0
1.0 -196 -91 0
1.0 136 -103 0
1.0 -95 -138 0
1.0 -19 -87 0
1.0 84 95 0
1.0 -151 -133 0
1.0 -172 181 0
1.0 -141 -33 0
1.0 123 71 0
1.0 174 74 0
1.0 -12 166 0
1.0 -52 -150 0
1.0 -44 -162 0
1.0 -95 110 0
1.0 -91 177 0
1.0 -10 -47 0
1.0 -118 13 0
1.0 -87 24 0
1.0 -190 128 0
1.0 -77 -69 0
1.0 -31 -128 0
1.0 -38 -102 0
1.0 -79 106 0
1.0 153 126 0
1.0 -139 10 0
1.0 -34 120 0
1.0 48 -51 0
1.0 119 -40 0
1.0 168 159 0
1.0 -61 -66 0
1.0 172 -90 0
1.0 -15 -47 0
1.0 -57 156 0
1.0 -76 -101 0
1.0 151 176 0
1.0 16 -90 0
1.0 -49 -93 0
1.0 158 -119 0
1.0 8 75 0
1.0 -122 -47 0
1.0 3 154 0
1.0 -55 179 0
1.0 155 -46 0
1.0 -136 -93 0
1.0 185 -139 0
1.0 57 142 0
1.0 17 -124 0
1.0 -170 -64 0
1.0 18 182 0
1.0 161 -50 0
1.0 96 151 0
1.0 44 36 0
1.0 -175 108 0
1.0 49 42 0
1.0 165 -183 0
1.0 -46 118 0
1.0 -100 157 0
1.0 -7 -11 0
1.0 -162 59 0
1.0 95 147 0
1.0 55 -4 0
1.0 -45 195 0
1.0 -177 171 0
1.0 88 -50 0
1.0 6 19 0
1.0 -29 -22 0
1.0 -80 -45 0
1.0 192 29 0
1.0 -32 143 0
1.0 137 -117 0
1.0 -88 -29 0
1.0 -78 20 0
1.0 38 9 0
1.0 30 -8 0
1.0 52 51 0
1.0 79 -128 0
1.0 -70 38 0
1.0 -155 73 0
1.0 101 -55 0
1.0 74 -180 0
1.0 -189 155 0
1.0 -162 33 0
1.0 84 -12 0
1.0 140 147 0
1.0 184 -60 0
1.0 -133 135 0
1.0 190 199 0
1.0 -178 -71 0
1.0 -25 -151 0
1.0 183 112 0
1.0 124 58 0
1.0 4 -101 0
1.0 -161 87 0
1.0 -22 107 0
1.0 106 136 0
1.0 6 47 0
1.0 198 -33 0
1.0 145 18 0
1.0 -75 74 0
1.0 175 -1 0
1.0 88 -191 0
1.0 -98 153 0
1.0 88 193 0
1.0 -40 135 0
1.0 167 -140 0
1.0 -157 63 0
1.0 -137 -108 0
1.0 109 -174 0
1.0 -165 73 0
1.0 26 -24 0
1.0 17 149 0
1.0 84 129 0
1.0 -69 110 0
1.0 173 -139 0
1.0 46 -165 0
1.0 -139 -65 0
1.0 -138 -54 0
1.0 78 28 0
1.0 -177 81 0
1.0 -10 44 0
1.0 -154 -70 0
1.0 8 160 0
1.0 124 54 0
1.0 -118 157 0
1.0 10 129 0
1.0 -156 -93 0
1.0 -174 -133 0
1.0 177 -101 0
1.0 171 -165 0
1.0 124 90 0
1.0 -143 38 0
1.0 -194 75 0
1.0 3 -133 0
1.0 26 -74 0
1.0 -6 -83 0
1.0 -183 -44 0
1.0 -9 -167 0
1.0 -56 -162 0
1.0 200 -89 0
1.0 -164 -175 0
1.0 -108 -89 0
1.0 -162 -15 0
1.0 -97 115 0
1.0 159 -60 0
1.0 26 164 0
1.0 125 -78 0
1.0 -167 -140 0
1.0 115 116 0
1.0 -4 -20 0
1.0 -35 -86 0
1.0 1 -81 0
1.0 -141 -43 0
1.0 6 -24 0
1.0 101 129 0
1.0 -69 -173 0
1.0 88 93 0
1.0 113 -158 0
1.0 43 190 0
1.0 71 88 0
1.0 -131 -127 0
1.0 150 25 0
1.0 -154 123 0
1.0 95 -116 0
1.0 9 -8 0
1.0 165 132 0
1.0 121 -145 0
1.0 33 -53 0
1.0 -179 99 0
1.0 -166 179 0
1.0 -97 179 0
1.0 183 -166 0
1.0 -40 -140 0
1.0 8 -163 0
1.0 -13 83 0
1.0 85 148 0
1.0 46 172 0
1.0 150 23 0
1.0 1 -83 0
1.0 -48 77 0
1.0 16 127 0
1.0 -89 -151 0
1.0 -33 -160 0
1.0 -107 -11 0
1.0 -182 -45 0
1.0 -68 64 0
1.0 146 -35 0
1.0 111 -23 0
1.0 -150 139 0
1.0 -89 -125 0
1.0 84 -107 0
1.0 -118 17 0
1.0 62 -107 0
1.0 -170 -8 0
1.0 -43 -48 0
1.0 71 189 0
1.0 127 29 0
1.0 -153 198 0
1.0 105 175 0
1.0 -192 168 0
1.0 -74 151 0
1.0 -159 180 0
1.0 -27 66 0
1.0 -54 -33 0
1.0 -61 174 0
1.0 172 134 0
1.0 109 75 0
1.0 -43 -18 0
1.0 -169 -136 0
1.0 -115 -118 0
1.0 184 82 0
1.0 115 -154 0
1.0 -128 14 0
1.0 -147 37 0
1.0 -112 -71 0
1.0 88 109 0
1.0 -44 -30 0
1.0 147 -112 0
1.0 -194 -138 0
1.0 92 184 0
1.0 -198 -70 0
1.0 -107 91 0
1.0 -161 154 0
1.0 -62 -41 0
1.0 70 89 0
1.0 -200 -165 0
1.0 -102 -113 0
1.0 97 183 0
1.0 53 -129 0
1.0 -19 -38 0
1.0 192 147 0
1.0 -188 134 0
1.0 22 24 0
1.0 188 20 0
1.0 132 115 0
1.0 -97 -95 0
1.0 -23 161 0
1.0 199 -84 0
1.0 31 49 0
1.0 183 4 0
1.0 27 148 0
1.0 -167 39 0
1.0 -153 188 0
1.0 -82 -50 0
1.0 -11 106 0
1.0 -190 166 0
1.0 15 -44 0
1.0 -48 112 0
1.0 60 25 0
1.0 -63 194 0
1.0 181 53 0
1.0 -102 -64 0
1.0 -169 -111 0
1.0 -76 122 0
1.0 166 16 0
1.0 127 -86 0
1.0 110 -176 0
1.0 -169 -138 0
1.0 191 53 0
1.0 116 176 0
1.0 86 -127 0
1.0 48 22 0
1.0 37 -137 0
1.0 -22 -112 0
1.0 -87 162 0
1.0 100 91 0
1.0 -144 15 0
1.0 -190 187 0
1.0 113 -188 0
1.0 -9 88 0
1.0 24 199 0
1.0 -111 -157 0
1.0 119 80 0
1.0 -170 -57 0
1.0 -71 90 0
1.0 -76 -118 0
1.0 -105 -173 0
1.0 -61 122 0
1.0 -120 165 0
1.0 122 106 0
1.0 186 -79 0
1.0 136 165 0
1.0 54 -42 0
1.0 -159 2 0
1.0 -174 66 0
1.0 -188 -133 0
1.0 -98 49 0
1.0 155 -164 0
1.0 43 -115 0
1.0 -79 -164 0
1.0 5 -48 0
1.0 49 181 0
1.0 47 1 0
1.0 -134 176 0
1.0 25 -77 0
1.0 -40 107 0
1.0 21 13 0
1.0 176 -42 0
1.0 -90 -96 0
1.0 -76 -168 0
1.0 -169 -18 0
1.0 -194 95 0
1.0 -172 182 0
1.0 88 -114 0
1.0 127 -153 0
1.0 195 41 0
1.0 136 26 0
1.0 -194 -183 0
1.0 200 -87 0
1.0 181 -197 0
1.0 -178 6 0
1.0 -120 57 0
1.0 -10 181 0
1.0 22 -32 0
1.0 -57 109 0
1.0 92 99 0
1.0 186 -76 0
1.0 -73 94 0
1.0 -100 82 0
1.0 139 -88 0
1.0 -69 14 0
1.0 45 -39 0
1.0 -148 14 0
1.0 -113 163 0
1.0 39 -13 0
1.0 -107 183 0
1.0 64 75 0
1.0 -162 89 0
1.0 -102 -120 0
1.0 166 -47 0
1.0 198 -125 0
1.0 -54 189 0
1.0 -52 111 0
1.0 71 -178 0
1.0 -2 100 0
1.0 -50 -138 0
1.0 58 137 0
1.0 184 -177 0
1.0 -102 -93 0
1.0 81 -142 0
1.0 -52 -193 0
1.0 171 -65 0
1.0 165 176 0
1.0 -113 -52 0
1.0 -188 -56 0
1.0 -32 -195 0
1.0 87 -94 0
1.0 -36 109 0
1.0 102 68 0
1.0 132 78 0
1.0 -54 -104 0
1.0 -155 -76 0
1.0 -131 -128 0
1.0 122 65 0
1.0 -159 -183 0
1.0 92 -78 0
1.0 145 93 0
1.0 -171 107 0
1.0 -10 -83 0
1.0 -159 124 0
1.0 52 -19 0
1.0 -84 148 0
1.0 131 158 0
1.0 35 -119 0
1.0 12 -77 0
1.0 183 -29 0
1.0 -111 193 0
1.0 -117 -62 0
1.0 -81 -11 0
1.0 158 122 0
1.0 -80 -44 0
1.0 163 -122 0
1.0 -199 -150 0
1.0 -178 159 0
1.0 -152 129 0
1.0 191 116 0
1.0 126 177 0
1.0 -98 -43 0
1.0 86 79 0
1.0 1 -185 0
1.0 -134 -178 0
1.0 -137 153 0
1.0 -82 157 0
1.0 -72 -192 0
1.0 168 179 0
1.0 22 -51 0
1.0 -130 -134 0
1.0 -118 178 0
1.0 -155 109 0
1.0 -62 -162 0
1.0 118 -135 0
1.0 -127 160 0
1.0 -139 -68 0
1.0 119 2 0
1.0 -136 23 0
1.0 -200 -108 0
1.0 16 67 0
1.0 28 -25 0
1.0 -160 37 0
1.0 -197 -122 0
1.0 189 -139 0
1.0 -141 162 0
1.0 -184 -134 0
1.0 -41 34 0
1.0 -100 -184 0
1.0 9 -155 0
1.0 192 -7 0
1.0 -129 -33 0
1.0 171 -18 0
1.0 -180 -179 0
1.0 -112 -116 0
1.0 149 85 0
1.0 -69 142 0
1.0 97 49 0
1.0 56 -98 0
1.0 -130 -199 0
1.0 17 -125 0
1.0 -103 199 0
1.0 -115 106 0
1.0 -191 176 0
1.0 -118 88 0
1.0 -137 -182 0
1.0 -79 177 0
1.0 -176 -77 0
1.0 -1 -120 0
1.0 -119 148 0
1.0 53 86 0
1.0 -61 -8 0
1.0 -96 40 0
1.0 21 93 0
1.0 -70 1 0
1.0 77 15 0
1.0 -135 25 0
1.0 172 99 0
1.0 184 182 0
1.0 190 172 0
1.0 -11 14 0
1.0 -107 -141 0
1.0 141 37 0
1.0 51 -58 0
1.0 82 76 0
1.0 175 -124 0
1.0 106 147 0
1.0 -119 -26 0
1.0 -40 -96 0
1.0 -36 -90 0
1.0 -126 -142 0
1.0 -199 90 0
1.0 -166 -199 0
1.0 123 13 0
1.0 -160 103 0
1.0 128 -103 0
1.0 -198 166 0
1.0 55 -34 0
1.0 -175 -4 0
1.0 94 117 0
1.0 -116 187 0
1.0 200 -98 0
1.0 200 -189 0
1.0 91 44 0
1.0 -10 7 0
1.0 40 131 0
1.0 -135 200 0
1.0 116 39 0
1.0 26 85 0
1.0 -182 -134 0
1.0 -122 21 0
1.0 65 3 0
1.0 -9 21 0
1.0 152 182 0
1.0 -181 48 0
1.0 -87 -1 0
1.0 -85 196 0
1.0 130 121 0
1.0 142 156 0
1.0 159 -163 0
1.0 184 -17 0
1.0 198 -77 0
1.0 125 135 0
1.0 -136 2 0
1.0 197 -58 0
1.0 -179 -133 0
1.0 -89 40 0
1.0 3 -5 0
1.0 -21 29 0
1.0 -105 142 0
1.0 77 70 0
1.0 71 161 0
1.0 -19 -117 0
1.0 -50 -170 0
1.0 -10 42 0
1.0 -46 198 0
1.0 27 -118 0
1.0 -59 -79 0
1.0 -148 199 0
1.0 160 -177 0
1.0 -94 -79 0
1.0 49 92 0
1.0 134 -66 0
1.0 64 66 0
1.0 183 129 0
1.0 -7 -181 0
1.0 -180 -122 0
1.0 -99 -59 0
1.0 -137 -93 0
1.0 185 -15 0
1.0 80 -111 0
1.0 177 -143 0
1.0 71 54 0
1.0 34 177 0
1.0 -98 -5 0
1.0 -63 -70 0
1.0 -163 -122 0
1.0 136 26 0
1.0 -137 -164 0
1.0 106 -192 0
1.0 45 73 0
1.0 50 -87 0
1.0 -92 -43 0
1.0 -113 131 0
1.0 53 -138 0
1.0 164 -89 0
1.0 52 -163 0
1.0 -154 -86 0
1.0 159 189 0
1.0 -75 -167 0
1.0 -10 -99 0
1.0 -30 74 0
1.0 11 -19 0
1.0 108 -73 0
1.0 -36 -88 0
1.0 -173 -51 0
1.0 -40 -62 0
1.0 29 95 0
1.0 -193 200 0
1.0 -73 155 0
1.0 174 173 0
1.0 46 132 0
1.0 19 -157 0
1.0 -8 57 0
1.0 -119 -63 0
1.0 -157 -41 0
1.0 -40 -143 0
1.0 -98 76 0
1.0 -49 52 0
1.0 -183 193 0
1.0 -150 -46 0
1.0 102 116 0
1.0 -178 -166 0
1.0 7 150 0
1.0 -92 -56 0
1.0 132 -153 0
1.0 5 -12 0
1.0 -5 -50 0
1.0 -96 -182 0
1.0 98 116 0
1.0 81 184 0
1.0 -134 94 0
1.0 150 91 0
1.0 44 74 0
1.0 86 135 0
1.0 185 23 0
1.0 4 -155 0
1.0 -71 -93 0
1.0 77 186 0
1.0 80 171 0
1.0 -62 -49 0
1.0 -123 171 0
1.0 105 186 0
1.0 -8 143 0
1.0 -98 -45 0
1.0 -137 90 0
1.0 75 -157 0
1.0 -127 -57 0
1.0 105 94 0
1.0 64 -44 0
1.0 30 135 0
1.0 77 -27 0
1.0 -71 162 0
1.0 51 -60 0
1.0 16 -42 0
1.0 -99 64 0
1.0 158 23 0
1.0 -67 66 0
1.0 -200 48 0
1.0 75 -182 0
1.0 -144 -193 0
1.0 -53 172 0
1.0 14 -1 0
1.0 -64 142 0
1.0 164 145 0
1.0 -11 33 0
1.0 81 -59 0
1.0 41 -139 0
1.0 -131 -50 0
1.0 21 98 0
1.0 -98 -62 0
1.0 -3 -60 0
1.0 -5 26 0
1.0 58 -123 0
1.0 181 113 0
1.0 51 -191 0
1.0 -40 183 0
1.0 80 -15 0
1.0 -76 39 0
1.0 99 -123 0
1.0 -148 40 0
1.0 -162 -143 0
1.0 -56 -35 0
1.0 25 168 0
1.0 -151 51 0
1.0 65 -18 0
1.0 57 -148 0
1.0 70 60 0
1.0 99 176 0
1.0 118 -165 0
1.0 199 167 0
1.0 135 166 0
1.0 -16 11 0
1.0 28 122 0
1.0 70 -36 0
1.0 -96 -98 0
1.0 73 -178 0
1.0 -143 -58 0
1.0 -25 -43 0
1.0 8 50 0
1.0 -60 157 0
1.0 -79 -124 0
1.0 160 12 0
1.0 109 -43 0
1.0 -21 -105 0
1.0 -162 -134 0
1.0 -176 -67 0
1.0 116 -187 0
1.0 144 112 0
1.0 -35 -34 0
1.0 45 -57 0
1.0 -100 -99 0
1.0 3 -105 0
1.0 -39 186 0
1.0 -52 -95 0
1.0 -81 5 0
1.0 116 -3 0
1.0 -37 16 0
1.0 73 -193 0
1.0 91 168 0
1.0 72 -175 0
1.0 -160 8 0
1.0 -102 -122 0
1.0 126 120 0
1.0 -123 -52 0
1.0 68 -136 0
1.0 -128 73 0
1.0 -41 -4 0
1.0 179 -170 0
1.0 -177 146 0
1.0 67 -128 0
1.0 48 -66 0
1.0 -117 -25 0
1.0 -160 168 0
1.0 -41 37 0
1.0 -41 19 0
1.0 -188 -15 0
1.0 160 106 0
1.0 34 102 0
1.0 167 53 0
1.0 78 180 0
1.0 -147 -193 0
1.0 30 33 0
1.0 52 61 0
1.0 75 45 0
1.0 150 -45 0
1.0 147 -81 0
1.0 -134 116 0
1.0 96 65 0
1.0 57 175 0
1.0 -7 97 0
1.0 157 44 0
1.0 88 100 0
1.0 145 127 0
1.0 8 -86 0
1.0 -2 200 0
1.0 -64 -200 0
1.0 175 -169 0
1.0 66 163 0
1.0 7 135 0
1.0 -34 -119 0
1.0 46 153 0
1.0 -39 73 0
1.0 -72 -145 0
1.0 145 -77 0
1.0 45 -63 0
1.0 -26 138 0
1.0 -72 -186 0
1.0 105 -58 0
1.0 10 153 0
1.0 25 197 0
1.0 141 26 0
1.0 102 -88 0
1.0 151 -103 0
1.0 40 -189 0
1.0 174 134 0
1.0 191 101 0
1.0 54 30 0
1.0 -27 -137 0
1.0 163 6 0
1.0 94 57 0
1.0 160 -68 0
1.0 -56 28 0
1.0 -162 -128 0
1.0 -29 134 0
1.0 -164 -2 0
1.0 -139 -135 0
1.0 -140 10 0
1.0 67 177 0
1.0 45 -97 0
1.0 -125 136 0
1.0 64 37 0
1.0 -170 -193 0
1.0 -194 -134 0
1.0 69 81 0
1.0 90 -199 0
1.0 -176 118 0
1.0 -15 -7 0
1.0 143 50 0
1.0 86 66 0
1.0 -58 73 0
1.0 -7 112 0
1.0 193 18 0
1.0 17 -124 0
1.0 42 20 0
1.0 -27 -132 0
1.0 -182 22 0
1.0 -88 -74 0
1.0 -146 -111 0
1.0 23 180 0
1.0 198 109 0
1.0 32 135 0
1.0 -155 -18 0
1.0 -149 -125 0
1.0 -146 126 0
1.0 -199 -119 0
1.0 29 174 0
1.0 154 -122 0
1.0 -31 162 0
1.0 -97 171 0
1.0 188 -63 0
1.0 187 -183 0
1.0 -109 -63 0
1.0 181 144 0
1.0 117 147 0
1.0 69 125 0
1.0 -87 -187 0
1.0 157 -95 0
1.0 157 -67 0
1.0 50 -146 0
1.0 8 -42 0
1.0 -186 -115 0
1.0 -61 -57 0
1.0 182 194 0
1.0 180 -188 0
1.0 82 87 0
1.0 -154 159 0
1.0 -104 -59 0
1.0 101 25 0
1.0 -140 97 0
1.0 -154 -160 0
1.0 153 -158 0
1.0 146 56 0
1.0 142 148 0
1.0 107 48 0
1.0 -107 59 0
1.0 84 21 0
1.0 118 80 0
1.0 40 -154 0
1.0 -111 10 0
1.0 65 194 0
1.0 -141 149 0
1.0 197 -199 0
1.0 -58 -178 0
1.0 -199 -3 0
1.0 -83 -188 0
1.0 -141 192 0
1.0 -1 39 0
1.0 33 -190 0
1.0 138 -174 0
1.0 173 77 0
1.0 -54 147 0
1.0 -149 134 0
1.0 -121 154 0
1.0 -146 -67 0
1.0 106 -20 0
1.0 -10 -84 0
1.0 58 130 0
1.0 6 119 0
1.0 -65 30 0
1.0 163 81 0
1.0 -35 -197 0
1.0 -64 -58 0
1.0 -78 138 0
1.0 22 17 0
1.0 -146 -116 0
1.0 34 168 0
1.0 -197 -123 0
1.0 3 156 0
1.0 153 188 0
1.0 -46 -143 0
1.0 81 -90 0
1.0 -106 44 0
1.0 159 -89 0
1.0 57 14 0
1.0 137 -3 0
1.0 -159 -54 0
1.0 -42 194 0
1.0 136 110 0
1.0 -199 -18 0
1.0 -62 98 0
1.0 187 160 0
1.0 174 -104 0
1.0 107 -50 0
1.0 27 175 0
1.0 -101 89 0
1.0 98 -171 0
1.0 -88 -114 0
1.0 -70 197 0
1.0 9 -14 0
1.0 109 112 0
1.0 -162 -84 0
1.0 59 -178 0
1.0 -66 -162 0
1.0 132 177 0
1.0 90 -54 0
1.0 -50 176 0
1.0 -190 191 0
1.0 -102 190 0
1.0 74 -89 0
1.0 67 -59 0
1.0 20 -59 0
1.0 -36 -173 0
1.0 27 175 0
1.0 -150 -74 0
1.0 64 -106 0
1.0 96 -150 0
1.0 -39 -80 0
1.0 138 -191 0
1.0 -50 132 0
1.0 104 -80 0
1.0 54 97 0
1.0 -170 140 0
1.0 -45 -177 0
1.0 -127 -27 0
1.0 106 9 0
1.0 200 107 0
1.0 -38 -111 0
1.0 190 147 0
1.0 43 77 0
1.0 17 187 0
1.0 164 43 0
1.0 69 -110 0
1.0 118 -123 0
1.0 -29 20 0
1.0 130 -102 0
1.0 -49 80 0
1.0 -157 -8 0
1.0 195 -148 0
1.0 191 35 0
1.0 145 101 0
1.0 -23 53 0
1.0 -72 147 0
1.0 -49 127 0
1.0 -6 -83 0
1.0 91 135 0
1.0 168 42 0
1.0 -88 -89 0
1.0 123 -9 0
1.0 189 -63 0
1.0 -182 -48 0
1.0 -169 80 0
1.0 -68 -75 0
1.0 -9 -26 0
1.0 -68 -27 0
1.0 -116 127 0
1.0 136 -154 0
1.0 17 -60 0
1.0 -107 42 0
1.0 -122 -19 0
1.0 -94 -67 0
1.0 93 -145 0
1.0 -172 59 0
1.0 -186 -58 0
1.0 12 139 0
1.0 198 -104 0
1.0 -146 132 0
1.0 151 106 0
1.0 -172 4 0
1.0 149 -26 0
1.0 85 139 0
1.0 -196 133 0
1.0 71 36 0
1.0 -139 62 0
1.0 -194 -153 0
1.0 -58 6 0
1.0 9 -134 0
1.0 159 118 0
1.0 -56 84 0
1.0 17 103 0
1.0 -138 95 0
1.0 -157 -128 0
1.0 80 -110 0
1.0 -115 -80 0
1.0 13 -60 0
1.0 177 157 0
1.0 40 126 0
1.0 -28 -144 0
1.0 39 -98 0
1.0 -25 -200 0
1.0 109 37 0
1.0 -116 -6 0
1.0 66 27 0
1.0 183 114 0
1.0 39 159 0
1.0 103 -21 0
1.0 -118 -71 0
1.0 70 -79 0
1.0 115 87 0
1.0 -93 -149 0
1.0 -175 -59 0
1.0 -172 74 0
1.0 33 -59 0
1.0 79 -106 0
1.0 -176 10 0
1.0 89 186 0
1.0 73 -25 0
1.0 -173 -193 0
1.0 -51 122 0
1.0 196 84 0
1.0 -143 108 0
1.0 13 -38 0
1.0 47 -158 0
1.0 -144 56 0
1.0 -80 172 0
1.0 -164 102 0
1.0 23 103 0
1.0 187 -70 0
1.0 -177 -8 0
1.0 -45 168 0
1.0 126 11 0
1.0 67 -165 0
1.0 -136 63 0
1.0 -165 -196 0
1.0 99 150 0
1.0 19 -51 0
1.0 -58 -163 0
1.0 -131 164 0
1.0 -175 21 0
1.0 -186 -7 0
1.0 70 184 0
1.0 180 133 0
1.0 -82 -26 0
1.0 76 -177 0
1.0 140 82 0
1.0 -45 31 0
1.0 51 48 0
1.0 -55 -46 0
1.0 -30 177 0
1.0 109 -178 0
1.0 3 51 0
1.0 28 -187 0
1.0 68 -49 0
1.0 -79 -161 0
1.0 -9 190 0
1.0 -36 122 0
1.0 99 143 0
1.0 -121 -162 0
1.0 13 88 0
1.0 75 -14 0
1.0 63 -42 0
1.0 2 186 0
1.0 176 37 0
1.0 159 58 0
1.0 1 -150 0
1.0 112 -60 0
1.0 -148 45 0
1.0 -59 -170 0
1.0 11 20 0
1.0 5 -133 0
1.0 -169 -94 0
1.0 -152 -68 0
1.0 17 -46 0
1.0 105 117 0
1.0 162 16 0
1.0 -186 -39 0
1.0 58 3 0
1.0 135 -30 0
1.0 123 35 0
1.0 102 -14 0
1.0 59 -99 0
1.0 15 -99 0
1.0 -115 90 0
1.0 128 -137 0
1.0 139 104 0
1.0 -134 90 0
1.0 -124 8 0
1.0 -21 157 0
1.0 55 191 0
1.0 90 60 0
1.0 -149 42 0
1.0 179 -200 0
1.0 -104 109 0
1.0 199 -169 0
1.0 -176 -23 0
1.0 179 92 0
1.0 -83 -120 0
1.0 -179 -149 0
1.0 191 -80 0
1.0 80 -67 0
1.0 176 -77 0
1.0 45 112 0
1.0 134 -45 0
1.0 -137 94 0
1.0 -13 -49 0
1.0 -198 -167 0
1.0 -47 -124 0
1.0 -191 -43 0
1.0 -120 -128 0
1.0 -39 -37 0
1.0 82 2 0
1.0 95 -31 0
1.0 79 29 0
1.0 195 19 0
1.0 -143 -21 0
1.0 63 -77 0
1.0 -5 39 0
1.0 76 -131 0
1.0 -132 100 0
1.0 -130 12 0
1.0 40 34 0
1.0 53 -149 0
1.0 -169 45 0
1.0 122 -29 0
1.0 -67 -160 0
1.0 90 183 0
1.0 83 75 0
1.0 86 -183 0
1.0 -17 106 0
1.0 54 38 0
1.0 82 194 0
1.0 -22 69 0
1.0 28 -96 0
1.0 -79 -131 0
1.0 -5 188 0
1.0 171 -196 0
1.0 101 -177 0
1.0 -14 120 0
1.0 113 -33 0
1.0 101 -26 0
1.0 121 -54 0
1.0 -184 -186 0
1.0 174 -136 0
1.0 -131 93 0
1.0 -69 185 0
1.0 -104 165 0
1.0 -197 75 0
1.0 100 173 0
1.0 26 71 0
1.0 -57 181 0
1.0 -117 73 0
1.0 166 103 0
1.0 -87 -65 0
1.0 29 94 0
1.0 -168 156 0
1.0 128 -147 0
1.0 -18 107 0
1.0 -88 158 0
1.0 30 -76 0
1.0 178 130 0
1.0 194 148 0
1.0 41 60 0
1.0 16 -170 0
1.0 117 -162 0
1.0 69 -58 0
1.0 -15 110 0
1.0 185 -12 0
1.0 141 -71 0
1.0 -18 79 0
1.0 139 -5 0
1.0 175 142 0
1.0 104 -193 0
1.0 -50 31 0
1.0 -141 -90 0
1.0 101 150 0
1.0 -20 113 0
1.0 192 -133 0
1.0 138 -163 0
1.0 104 179 0
1.0 -172 28 0
1.0 59 -107 0
1.0 -196 195 0
1.0 -144 -11 0
1.0 123 -114 0
1.0 47 -97 0
1.0 59 -126 0
1.0 -105 101 0
1.0 129 -147 0
1.0 -53 182 0
1.0 -177 -109 0
1.0 120 84 0
1.0 -198 83 0
1.0 179 198 0
1.0 -123 127 0
1.0 -27 -167 0
1.0 -113 -200 0
1.0 182 -128 0
1.0 37 -160 0
1.0 -44 159 0
1.0 42 152 0
1.0 149 115 0
1.0 41 56 0
1.0 22 -2 0
1.0 2 -164 0
1.0 -91 -115 0
1.0 75 -17 0
1.0 -176 80 0
1.0 31 -45 0
1.0 159 -94 0
1.0 150 -149 0
1.0 -151 -88 0
1.0 -52 -6 0
1.0 120 -75 0
1.0 -91 152 0
1.0 31 71 0
1.0 115 121 0
1.0 15 -91 0
1.0 -39 -138 0
1.0 -25 41 0
1.0 46 -75 0
1.0 -149 87 0
1.0 -39 71 0
1.0 -142 190 0
1.0 -111 -171 0
1.0 61 1 0
1.0 138 -25 0
1.0 65 -29 0
1.0 104 55 0
1.0 142 -34 0
1.0 105 197 0
1.0 -187 180 0
1.0 150 31 0
1.0 -32 -113 0
1.0 -137 198 0
1.0 -26 -169 0
1.0 -23 -187 0
1.0 -21 -72 0
1.0 -69 194 0
1.0 -173 -73 0
1.0 -103 -175 0
1.0 -87 42 0
1.0 39 34 0
1.0 -2 136 0
1.0 -123 -175 0
1.0 46 -134 0
1.0 -128 -38 0
1.0 110 121 0
1.0 -96 -156 0
1.0 197 50 0
1.0 84 31 0
1.0 -167 94 0
1.0 68 -100 0
1.0 34 -99 0
1.0 136 196 0
1.0 117 83 0
1.0 -39 5 0
1.0 54 -1 0
1.0 32 -171 0
1.0 64 -133 0
1.0 33 119 0
1.0 17 -71 0
1.0 -66 -86 0
1.0 -169 55 0
1.0 59 -189 0
1.0 189 112 0
1.0 82 -72 0
1.0 5 108 0
1.0 -26 119 0
1.0 -189 127 0
1.0 12 -193 0
1.0 -47 -30 0
1.0 18 29 0
1.0 140 68 0
1.0 -139 -47 0
1.0 -154 -42 0
1.0 161 -81 0
1.0 8 18 0
1.0 -10 40 0
1.0 -70 187 0
1.0 15 -180 0
1.0 -48 -121 0
1.0 -167 -142 0
1.0 183 -109 0
1.0 190 -122 0
1.0 139 -97 0
1.0 137 16 0
1.0 2 167 0
1.0 -147 -185 0
1.0 -105 145 0
1.0 -86 110 0
1.0 18 92 0
1.0 13 -105 0
1.0 -1 -21 0
1.0 -37 106 0
1.0 72 34 0
1.0 19 -24 0
1.0 -169 193 0
1.0 -102 -186 0
1.0 -77 134 0
1.0 38 131 0
1.0 -152 -142 0
1.0 47 -118 0
1.0 -152 -81 0
1.0 104 150 0
1.0 -142 87 0
1.0 -73 -48 0
1.0 181 89 0
1.0 20 -81 0
1.0 -23 31 0
1.0 -148 186 0
1.0 66 -126 0
1.0 76 161 0
1.0 48 -168 0
1.0 15 -23 0
1.0 112 -110 0
1.0 -191 68 0
1.0 98 61 0
1.0 -46 -71 0
1.0 197 12 0
1.0 173 123 0
1.0 -90 -151 0
1.0 173 11 0
1.0 120 -111 0
1.0 -179 116 0
1.0 -177 5 0
1.0 -76 65 0
1.0 -77 16 0
1.0 139 36 0
1.0 -186 -10 0
1.0 20 -32 0
1.0 143 -58 0
1.0 -173 -172 0
1.0 -177 118 0
1.0 -183 106 0
1.0 -122 71 0
1.0 106 177 0
1.0 187 20 0
1.0 -51 -93 0
1.0 -150 -195 0
1.0 166 -110 0
1.0 -28 44 0
1.0 150 120 0
1.0 -190 177 0
1.0 -154 -18 0
1.0 37 -145 0
1.0 91 81 0
1.0 194 -1 0
1.0 -73 -193 0
1.0 187 -140 0
1.0 9 -138 0
1.0 -68 192 0
1.0 -179 77 0
1.0 -22 -10 0
1.0 -90 23 0
1.0 -24 46 0
1.0 38 117 0
1.0 -57 80 0
1.0 17 28 0
1.0 -20 -187 0
1.0 64 91 0
1.0 -100 -158 0
1.0 181 193 0
1.0 -39 60 0
1.0 -177 115 0
1.0 194 33 0
1.0 60 148 0
1.0 135 -63 0
1.0 154 90 0
1.0 48 80 0
1.0 73 -115 0
1.0 -174 -134 0
1.0 -48 89 0
1.0 122 -82 0
1.0 29 -147 0
1.0 -10 -137 0
1.0 27 45 0
1.0 -125 -57 0
1.0 -172 -134 0
1.0 68 -96 0
1.0 -185 -79 0
1.0 161 -9 0
1.0 -156 -146 0
1.0 -83 -115 0
1.0 -159 143 0
1.0 200 -84 0
1.0 -18 189 0
1.0 -85 12 0
1.0 -91 156 0
1.0 164 -61 0
1.0 7 193 0
1.0 -107 12 0
1.0 -155 -180 0
1.0 -63 29 0
1.0 -17 -42 0
1.0 -53 -163 0
1.0 -118 145 0
1.0 6 34 0
1.0 -26 -85 0
1.0 -97 99 0
1.0 78 -146 0
1.0 174 -132 0
1.0 173 184 0
1.0 -147 61 0
1.0 -5 163 0
1.0 196 148 0
1.0 -32 -123 0
1.0 -21 152 0
1.0 97 186 0
1.0 117 59 0
1.0 -43 -152 0
1.0 12 85 0
1.0 48 1 0
1.0 148 -48 0
1.0 -171 -19 0
1.0 170 88 0
